(set-info :smt-lib-version 2.6)
(set-logic QF_S)
(set-info :source |
Generated by: Hongjian Jiang, Oliver Markgraf, Daniel Stan, Anthony W. Lin, Philipp Ruemmer
Generated on: 2025-04-11
Application: Using String Solvers to solve RMC problems encoded as CHC over Strings
Target solver: cvc5, OSTRICH, Z3, Z3alpha, Z3-noodler
Time limit: 60.0
Benchmarks are extracted by running HornStr https://arg-git.informatik.uni-kl.de/pub/string-chc-lib on all benchmarks
provided in the repository and gathering the string queries sent to the string solvers.
|)
(declare-fun X () String)
(assert (str.in_re X (re.* (re.union (str.to_re "t") (str.to_re "n")))))
(declare-fun Y () String)
(declare-fun A () String)
(declare-fun B () String)
(assert (and true
     (= Y (str.++ A "tn" B))
     (= X (str.++ A "nt" B))
     (str.in_re A (re.* (str.to_re "n")))
     (str.in_re B (re.* (str.to_re "n")))))
(push 1)
(assert (= Y "t"))
(set-info :status unknown)
(check-sat)
(pop 1)
(push 1)
(assert (= Y "tn"))
(set-info :status unknown)
(check-sat)
(assert (distinct X "nt"))
(set-info :status unknown)
(check-sat)
(pop 1)
(push 1)
(assert (= Y "nt"))
(set-info :status unknown)
(check-sat)
(pop 1)
(push 1)
(assert (= Y "tnn"))
(set-info :status unknown)
(check-sat)
(assert (distinct X "ntn"))
(set-info :status unknown)
(check-sat)
(pop 1)
(push 1)
(assert (= Y "ntn"))
(set-info :status unknown)
(check-sat)
(assert (distinct X "nnt"))
(set-info :status unknown)
(check-sat)
(pop 1)
(push 1)
(assert (= Y "nnt"))
(set-info :status unknown)
(check-sat)
(pop 1)
(push 1)
(assert (= Y "tnnn"))
(set-info :status unknown)
(check-sat)
(assert (distinct X "ntnn"))
(set-info :status unknown)
(check-sat)
(pop 1)
(push 1)
(assert (= Y "ntnn"))
(set-info :status unknown)
(check-sat)
(assert (distinct X "nntn"))
(set-info :status unknown)
(check-sat)
(pop 1)
(push 1)
(assert (= Y "nntn"))
(set-info :status unknown)
(check-sat)
(assert (distinct X "nnnt"))
(set-info :status unknown)
(check-sat)
(pop 1)
(push 1)
(assert (= Y "nnnt"))
(set-info :status unknown)
(check-sat)
(pop 1)
